6,8	0,0	8,4	15,1	0,0	0,0	0,0	0,0	0,0	7,5
16,6	12,2	0,0	16,4	14,3	0,0	0,0	16,3	0,0	0,0
0,0	0,0	8,8	0,0	17,4	7,5	0,0	0,0	15,8	0,0
5,5	0,0	17,9	0,0	0,0	0,0	8,3	0,0	0,0	0,0
0,0	7,2	0,0	5,6	13,5	0,0	0,0	13,1	0,0	0,0
0,0	9,2	14,0	0,0	12,5	7,7	0,0	0,0	10,1	0,0
0,0	17,6	0,0	18,8	0,0	0,0	13,4	0,0	0,0	11,4
9,5	0,0	9,8	0,0	0,0	0,0	0,0	0,0	0,0	11,8
0,0	11,8	0,0	11,9	17,3	0,0	0,0	12,2	0,0	0,0
0,0	0,0	11,8	0,0	0,0	19,8	18,1	0,0	0,0	5,3
									
3,9	3,0	2,6	3,1	4,7	4,6	4,9	3,2	4,1	4,3
